proyfinal/src/viki/013/experimentInOfficeAgust.take6.output/dc42dc25-dd63-4663-a531-d6763da10aa2.als.out
Reading from standard input... Use '--help' for help.
============================[ Problem Statistics ]=============================
|                                                                             |
|  Number of variables:         87638                                         |
|  Number of clauses:          161767                                         |
|  Parse time:                   0.03 s                                       |
|                                                                             |
============================[ Search Statistics ]==============================
| Conflicts |          ORIGINAL         |          LEARNT          | Progress |
|           |    Vars  Clauses Literals |    Limit  Clauses Lit/Cl |          |
===============================================================================
|       100 |   63769   110202   275503 |    40407      100     25 | 27.236 % |
|       250 |   63727   110102   275274 |    44448      248     30 | 27.284 % |
|       475 |   63727   110028   275103 |    48892      473     55 | 27.284 % |
|       812 |   63646   109656   274254 |    53782      805     52 | 27.376 % |
|      1318 |   63646   109656   274254 |    59160     1311     55 | 27.376 % |
|      2077 |   63646   109656   274254 |    65076     2070     68 | 27.376 % |
|      3216 |   63601   109491   273818 |    71584     3172     92 | 27.428 % |
|      4924 |   63601   109491   273818 |    78742     4880     97 | 27.428 % |
|      7486 |   63601   109491   273818 |    86616     7442    101 | 27.428 % |
|     11330 |   50260    69509   175293 |    95278    11121     97 | 42.650 % |
===============================================================================
restarts              : 62
conflicts             : 15056          (5878 /sec)
decisions             : 51443          (0.00 % random) (20083 /sec)
propagations          : 22946006       (8958178 /sec)
conflict literals     : 1274645        (51.71 % deleted)
Memory used           : 28.57 MB
CPU time              : 2.56146 s

INDETERMINATE
